certificates/rado_a15_c22_N113.cnf
c Rad2 upper bound instance: x1 + 15*x2 - x3 = 22, interval [1,113]
p cnf 113 1050
1 2 9 0
-1 -2 -9 0
1 3 24 0
-1 -3 -24 0
1 4 39 0
-1 -4 -39 0
1 5 54 0
-1 -5 -54 0
1 6 69 0
-1 -6 -69 0
1 7 84 0
-1 -7 -84 0
1 8 99 0
-1 -8 -99 0
2 10 0
-2 -10 0
2 3 25 0
-2 -3 -25 0
2 4 40 0
-2 -4 -40 0
2 5 55 0
-2 -5 -55 0
2 6 70 0
-2 -6 -70 0
2 7 85 0
-2 -7 -85 0
2 8 100 0
-2 -8 -100 0
2 3 11 0
-2 -3 -11 0
3 26 0
-3 -26 0
3 4 41 0
-3 -4 -41 0
3 5 56 0
-3 -5 -56 0
3 6 71 0
-3 -6 -71 0
3 7 86 0
-3 -7 -86 0
3 8 101 0
-3 -8 -101 0
2 4 12 0
-2 -4 -12 0
3 4 27 0
-3 -4 -27 0
4 42 0
-4 -42 0
4 5 57 0
-4 -5 -57 0
4 6 72 0
-4 -6 -72 0
4 7 87 0
-4 -7 -87 0
4 8 102 0
-4 -8 -102 0
2 5 13 0
-2 -5 -13 0
3 5 28 0
-3 -5 -28 0
4 5 43 0
-4 -5 -43 0
5 58 0
-5 -58 0
5 6 73 0
-5 -6 -73 0
5 7 88 0
-5 -7 -88 0
5 8 103 0
-5 -8 -103 0
2 6 14 0
-2 -6 -14 0
3 6 29 0
-3 -6 -29 0
4 6 44 0
-4 -6 -44 0
5 6 59 0
-5 -6 -59 0
6 74 0
-6 -74 0
6 7 89 0
-6 -7 -89 0
6 8 104 0
-6 -8 -104 0
2 7 15 0
-2 -7 -15 0
3 7 30 0
-3 -7 -30 0
4 7 45 0
-4 -7 -45 0
5 7 60 0
-5 -7 -60 0
6 7 75 0
-6 -7 -75 0
7 90 0
-7 -90 0
7 8 105 0
-7 -8 -105 0
1 8 0
-1 -8 0
2 8 16 0
-2 -8 -16 0
3 8 31 0
-3 -8 -31 0
4 8 46 0
-4 -8 -46 0
5 8 61 0
-5 -8 -61 0
6 8 76 0
-6 -8 -76 0
7 8 91 0
-7 -8 -91 0
8 106 0
-8 -106 0
2 9 17 0
-2 -9 -17 0
3 9 32 0
-3 -9 -32 0
4 9 47 0
-4 -9 -47 0
5 9 62 0
-5 -9 -62 0
6 9 77 0
-6 -9 -77 0
7 9 92 0
-7 -9 -92 0
8 9 107 0
-8 -9 -107 0
1 3 10 0
-1 -3 -10 0
2 10 18 0
-2 -10 -18 0
3 10 33 0
-3 -10 -33 0
4 10 48 0
-4 -10 -48 0
5 10 63 0
-5 -10 -63 0
6 10 78 0
-6 -10 -78 0
7 10 93 0
-7 -10 -93 0
8 10 108 0
-8 -10 -108 0
1 4 11 0
-1 -4 -11 0
2 11 19 0
-2 -11 -19 0
3 11 34 0
-3 -11 -34 0
4 11 49 0
-4 -11 -49 0
5 11 64 0
-5 -11 -64 0
6 11 79 0
-6 -11 -79 0
7 11 94 0
-7 -11 -94 0
8 11 109 0
-8 -11 -109 0
1 5 12 0
-1 -5 -12 0
2 12 20 0
-2 -12 -20 0
3 12 35 0
-3 -12 -35 0
4 12 50 0
-4 -12 -50 0
5 12 65 0
-5 -12 -65 0
6 12 80 0
-6 -12 -80 0
7 12 95 0
-7 -12 -95 0
8 12 110 0
-8 -12 -110 0
1 6 13 0
-1 -6 -13 0
2 13 21 0
-2 -13 -21 0
3 13 36 0
-3 -13 -36 0
4 13 51 0
-4 -13 -51 0
5 13 66 0
-5 -13 -66 0
6 13 81 0
-6 -13 -81 0
7 13 96 0
-7 -13 -96 0
8 13 111 0
-8 -13 -111 0
1 7 14 0
-1 -7 -14 0
2 14 22 0
-2 -14 -22 0
3 14 37 0
-3 -14 -37 0
4 14 52 0
-4 -14 -52 0
5 14 67 0
-5 -14 -67 0
6 14 82 0
-6 -14 -82 0
7 14 97 0
-7 -14 -97 0
8 14 112 0
-8 -14 -112 0
1 8 15 0
-1 -8 -15 0
2 15 23 0
-2 -15 -23 0
3 15 38 0
-3 -15 -38 0
4 15 53 0
-4 -15 -53 0
5 15 68 0
-5 -15 -68 0
6 15 83 0
-6 -15 -83 0
7 15 98 0
-7 -15 -98 0
8 15 113 0
-8 -15 -113 0
1 9 16 0
-1 -9 -16 0
2 16 24 0
-2 -16 -24 0
3 16 39 0
-3 -16 -39 0
4 16 54 0
-4 -16 -54 0
5 16 69 0
-5 -16 -69 0
6 16 84 0
-6 -16 -84 0
7 16 99 0
-7 -16 -99 0
1 10 17 0
-1 -10 -17 0
2 17 25 0
-2 -17 -25 0
3 17 40 0
-3 -17 -40 0
4 17 55 0
-4 -17 -55 0
5 17 70 0
-5 -17 -70 0
6 17 85 0
-6 -17 -85 0
7 17 100 0
-7 -17 -100 0
1 11 18 0
-1 -11 -18 0
2 18 26 0
-2 -18 -26 0
3 18 41 0
-3 -18 -41 0
4 18 56 0
-4 -18 -56 0
5 18 71 0
-5 -18 -71 0
6 18 86 0
-6 -18 -86 0
7 18 101 0
-7 -18 -101 0
1 12 19 0
-1 -12 -19 0
2 19 27 0
-2 -19 -27 0
3 19 42 0
-3 -19 -42 0
4 19 57 0
-4 -19 -57 0
5 19 72 0
-5 -19 -72 0
6 19 87 0
-6 -19 -87 0
7 19 102 0
-7 -19 -102 0
1 13 20 0
-1 -13 -20 0
2 20 28 0
-2 -20 -28 0
3 20 43 0
-3 -20 -43 0
4 20 58 0
-4 -20 -58 0
5 20 73 0
-5 -20 -73 0
6 20 88 0
-6 -20 -88 0
7 20 103 0
-7 -20 -103 0
1 14 21 0
-1 -14 -21 0
2 21 29 0
-2 -21 -29 0
3 21 44 0
-3 -21 -44 0
4 21 59 0
-4 -21 -59 0
5 21 74 0
-5 -21 -74 0
6 21 89 0
-6 -21 -89 0
7 21 104 0
-7 -21 -104 0
1 15 22 0
-1 -15 -22 0
2 22 30 0
-2 -22 -30 0
3 22 45 0
-3 -22 -45 0
4 22 60 0
-4 -22 -60 0
5 22 75 0
-5 -22 -75 0
6 22 90 0
-6 -22 -90 0
7 22 105 0
-7 -22 -105 0
1 16 23 0
-1 -16 -23 0
2 23 31 0
-2 -23 -31 0
3 23 46 0
-3 -23 -46 0
4 23 61 0
-4 -23 -61 0
5 23 76 0
-5 -23 -76 0
6 23 91 0
-6 -23 -91 0
7 23 106 0
-7 -23 -106 0
1 17 24 0
-1 -17 -24 0
2 24 32 0
-2 -24 -32 0
3 24 47 0
-3 -24 -47 0
4 24 62 0
-4 -24 -62 0
5 24 77 0
-5 -24 -77 0
6 24 92 0
-6 -24 -92 0
7 24 107 0
-7 -24 -107 0
1 18 25 0
-1 -18 -25 0
2 25 33 0
-2 -25 -33 0
3 25 48 0
-3 -25 -48 0
4 25 63 0
-4 -25 -63 0
5 25 78 0
-5 -25 -78 0
6 25 93 0
-6 -25 -93 0
7 25 108 0
-7 -25 -108 0
1 19 26 0
-1 -19 -26 0
2 26 34 0
-2 -26 -34 0
3 26 49 0
-3 -26 -49 0
4 26 64 0
-4 -26 -64 0
5 26 79 0
-5 -26 -79 0
6 26 94 0
-6 -26 -94 0
7 26 109 0
-7 -26 -109 0
1 20 27 0
-1 -20 -27 0
2 27 35 0
-2 -27 -35 0
3 27 50 0
-3 -27 -50 0
4 27 65 0
-4 -27 -65 0
5 27 80 0
-5 -27 -80 0
6 27 95 0
-6 -27 -95 0
7 27 110 0
-7 -27 -110 0
1 21 28 0
-1 -21 -28 0
2 28 36 0
-2 -28 -36 0
3 28 51 0
-3 -28 -51 0
4 28 66 0
-4 -28 -66 0
5 28 81 0
-5 -28 -81 0
6 28 96 0
-6 -28 -96 0
7 28 111 0
-7 -28 -111 0
1 22 29 0
-1 -22 -29 0
2 29 37 0
-2 -29 -37 0
3 29 52 0
-3 -29 -52 0
4 29 67 0
-4 -29 -67 0
5 29 82 0
-5 -29 -82 0
6 29 97 0
-6 -29 -97 0
7 29 112 0
-7 -29 -112 0
1 23 30 0
-1 -23 -30 0
2 30 38 0
-2 -30 -38 0
3 30 53 0
-3 -30 -53 0
4 30 68 0
-4 -30 -68 0
5 30 83 0
-5 -30 -83 0
6 30 98 0
-6 -30 -98 0
7 30 113 0
-7 -30 -113 0
1 24 31 0
-1 -24 -31 0
2 31 39 0
-2 -31 -39 0
3 31 54 0
-3 -31 -54 0
4 31 69 0
-4 -31 -69 0
5 31 84 0
-5 -31 -84 0
6 31 99 0
-6 -31 -99 0
1 25 32 0
-1 -25 -32 0
2 32 40 0
-2 -32 -40 0
3 32 55 0
-3 -32 -55 0
4 32 70 0
-4 -32 -70 0
5 32 85 0
-5 -32 -85 0
6 32 100 0
-6 -32 -100 0
1 26 33 0
-1 -26 -33 0
2 33 41 0
-2 -33 -41 0
3 33 56 0
-3 -33 -56 0
4 33 71 0
-4 -33 -71 0
5 33 86 0
-5 -33 -86 0
6 33 101 0
-6 -33 -101 0
1 27 34 0
-1 -27 -34 0
2 34 42 0
-2 -34 -42 0
3 34 57 0
-3 -34 -57 0
4 34 72 0
-4 -34 -72 0
5 34 87 0
-5 -34 -87 0
6 34 102 0
-6 -34 -102 0
1 28 35 0
-1 -28 -35 0
2 35 43 0
-2 -35 -43 0
3 35 58 0
-3 -35 -58 0
4 35 73 0
-4 -35 -73 0
5 35 88 0
-5 -35 -88 0
6 35 103 0
-6 -35 -103 0
1 29 36 0
-1 -29 -36 0
2 36 44 0
-2 -36 -44 0
3 36 59 0
-3 -36 -59 0
4 36 74 0
-4 -36 -74 0
5 36 89 0
-5 -36 -89 0
6 36 104 0
-6 -36 -104 0
1 30 37 0
-1 -30 -37 0
2 37 45 0
-2 -37 -45 0
3 37 60 0
-3 -37 -60 0
4 37 75 0
-4 -37 -75 0
5 37 90 0
-5 -37 -90 0
6 37 105 0
-6 -37 -105 0
1 31 38 0
-1 -31 -38 0
2 38 46 0
-2 -38 -46 0
3 38 61 0
-3 -38 -61 0
4 38 76 0
-4 -38 -76 0
5 38 91 0
-5 -38 -91 0
6 38 106 0
-6 -38 -106 0
1 32 39 0
-1 -32 -39 0
2 39 47 0
-2 -39 -47 0
3 39 62 0
-3 -39 -62 0
4 39 77 0
-4 -39 -77 0
5 39 92 0
-5 -39 -92 0
6 39 107 0
-6 -39 -107 0
1 33 40 0
-1 -33 -40 0
2 40 48 0
-2 -40 -48 0
3 40 63 0
-3 -40 -63 0
4 40 78 0
-4 -40 -78 0
5 40 93 0
-5 -40 -93 0
6 40 108 0
-6 -40 -108 0
1 34 41 0
-1 -34 -41 0
2 41 49 0
-2 -41 -49 0
3 41 64 0
-3 -41 -64 0
4 41 79 0
-4 -41 -79 0
5 41 94 0
-5 -41 -94 0
6 41 109 0
-6 -41 -109 0
1 35 42 0
-1 -35 -42 0
2 42 50 0
-2 -42 -50 0
3 42 65 0
-3 -42 -65 0
4 42 80 0
-4 -42 -80 0
5 42 95 0
-5 -42 -95 0
6 42 110 0
-6 -42 -110 0
1 36 43 0
-1 -36 -43 0
2 43 51 0
-2 -43 -51 0
3 43 66 0
-3 -43 -66 0
4 43 81 0
-4 -43 -81 0
5 43 96 0
-5 -43 -96 0
6 43 111 0
-6 -43 -111 0
1 37 44 0
-1 -37 -44 0
2 44 52 0
-2 -44 -52 0
3 44 67 0
-3 -44 -67 0
4 44 82 0
-4 -44 -82 0
5 44 97 0
-5 -44 -97 0
6 44 112 0
-6 -44 -112 0
1 38 45 0
-1 -38 -45 0
2 45 53 0
-2 -45 -53 0
3 45 68 0
-3 -45 -68 0
4 45 83 0
-4 -45 -83 0
5 45 98 0
-5 -45 -98 0
6 45 113 0
-6 -45 -113 0
1 39 46 0
-1 -39 -46 0
2 46 54 0
-2 -46 -54 0
3 46 69 0
-3 -46 -69 0
4 46 84 0
-4 -46 -84 0
5 46 99 0
-5 -46 -99 0
1 40 47 0
-1 -40 -47 0
2 47 55 0
-2 -47 -55 0
3 47 70 0
-3 -47 -70 0
4 47 85 0
-4 -47 -85 0
5 47 100 0
-5 -47 -100 0
1 41 48 0
-1 -41 -48 0
2 48 56 0
-2 -48 -56 0
3 48 71 0
-3 -48 -71 0
4 48 86 0
-4 -48 -86 0
5 48 101 0
-5 -48 -101 0
1 42 49 0
-1 -42 -49 0
2 49 57 0
-2 -49 -57 0
3 49 72 0
-3 -49 -72 0
4 49 87 0
-4 -49 -87 0
5 49 102 0
-5 -49 -102 0
1 43 50 0
-1 -43 -50 0
2 50 58 0
-2 -50 -58 0
3 50 73 0
-3 -50 -73 0
4 50 88 0
-4 -50 -88 0
5 50 103 0
-5 -50 -103 0
1 44 51 0
-1 -44 -51 0
2 51 59 0
-2 -51 -59 0
3 51 74 0
-3 -51 -74 0
4 51 89 0
-4 -51 -89 0
5 51 104 0
-5 -51 -104 0
1 45 52 0
-1 -45 -52 0
2 52 60 0
-2 -52 -60 0
3 52 75 0
-3 -52 -75 0
4 52 90 0
-4 -52 -90 0
5 52 105 0
-5 -52 -105 0
1 46 53 0
-1 -46 -53 0
2 53 61 0
-2 -53 -61 0
3 53 76 0
-3 -53 -76 0
4 53 91 0
-4 -53 -91 0
5 53 106 0
-5 -53 -106 0
1 47 54 0
-1 -47 -54 0
2 54 62 0
-2 -54 -62 0
3 54 77 0
-3 -54 -77 0
4 54 92 0
-4 -54 -92 0
5 54 107 0
-5 -54 -107 0
1 48 55 0
-1 -48 -55 0
2 55 63 0
-2 -55 -63 0
3 55 78 0
-3 -55 -78 0
4 55 93 0
-4 -55 -93 0
5 55 108 0
-5 -55 -108 0
1 49 56 0
-1 -49 -56 0
2 56 64 0
-2 -56 -64 0
3 56 79 0
-3 -56 -79 0
4 56 94 0
-4 -56 -94 0
5 56 109 0
-5 -56 -109 0
1 50 57 0
-1 -50 -57 0
2 57 65 0
-2 -57 -65 0
3 57 80 0
-3 -57 -80 0
4 57 95 0
-4 -57 -95 0
5 57 110 0
-5 -57 -110 0
1 51 58 0
-1 -51 -58 0
2 58 66 0
-2 -58 -66 0
3 58 81 0
-3 -58 -81 0
4 58 96 0
-4 -58 -96 0
5 58 111 0
-5 -58 -111 0
1 52 59 0
-1 -52 -59 0
2 59 67 0
-2 -59 -67 0
3 59 82 0
-3 -59 -82 0
4 59 97 0
-4 -59 -97 0
5 59 112 0
-5 -59 -112 0
1 53 60 0
-1 -53 -60 0
2 60 68 0
-2 -60 -68 0
3 60 83 0
-3 -60 -83 0
4 60 98 0
-4 -60 -98 0
5 60 113 0
-5 -60 -113 0
1 54 61 0
-1 -54 -61 0
2 61 69 0
-2 -61 -69 0
3 61 84 0
-3 -61 -84 0
4 61 99 0
-4 -61 -99 0
1 55 62 0
-1 -55 -62 0
2 62 70 0
-2 -62 -70 0
3 62 85 0
-3 -62 -85 0
4 62 100 0
-4 -62 -100 0
1 56 63 0
-1 -56 -63 0
2 63 71 0
-2 -63 -71 0
3 63 86 0
-3 -63 -86 0
4 63 101 0
-4 -63 -101 0
1 57 64 0
-1 -57 -64 0
2 64 72 0
-2 -64 -72 0
3 64 87 0
-3 -64 -87 0
4 64 102 0
-4 -64 -102 0
1 58 65 0
-1 -58 -65 0
2 65 73 0
-2 -65 -73 0
3 65 88 0
-3 -65 -88 0
4 65 103 0
-4 -65 -103 0
1 59 66 0
-1 -59 -66 0
2 66 74 0
-2 -66 -74 0
3 66 89 0
-3 -66 -89 0
4 66 104 0
-4 -66 -104 0
1 60 67 0
-1 -60 -67 0
2 67 75 0
-2 -67 -75 0
3 67 90 0
-3 -67 -90 0
4 67 105 0
-4 -67 -105 0
1 61 68 0
-1 -61 -68 0
2 68 76 0
-2 -68 -76 0
3 68 91 0
-3 -68 -91 0
4 68 106 0
-4 -68 -106 0
1 62 69 0
-1 -62 -69 0
2 69 77 0
-2 -69 -77 0
3 69 92 0
-3 -69 -92 0
4 69 107 0
-4 -69 -107 0
1 63 70 0
-1 -63 -70 0
2 70 78 0
-2 -70 -78 0
3 70 93 0
-3 -70 -93 0
4 70 108 0
-4 -70 -108 0
1 64 71 0
-1 -64 -71 0
2 71 79 0
-2 -71 -79 0
3 71 94 0
-3 -71 -94 0
4 71 109 0
-4 -71 -109 0
1 65 72 0
-1 -65 -72 0
2 72 80 0
-2 -72 -80 0
3 72 95 0
-3 -72 -95 0
4 72 110 0
-4 -72 -110 0
1 66 73 0
-1 -66 -73 0
2 73 81 0
-2 -73 -81 0
3 73 96 0
-3 -73 -96 0
4 73 111 0
-4 -73 -111 0
1 67 74 0
-1 -67 -74 0
2 74 82 0
-2 -74 -82 0
3 74 97 0
-3 -74 -97 0
4 74 112 0
-4 -74 -112 0
1 68 75 0
-1 -68 -75 0
2 75 83 0
-2 -75 -83 0
3 75 98 0
-3 -75 -98 0
4 75 113 0
-4 -75 -113 0
1 69 76 0
-1 -69 -76 0
2 76 84 0
-2 -76 -84 0
3 76 99 0
-3 -76 -99 0
1 70 77 0
-1 -70 -77 0
2 77 85 0
-2 -77 -85 0
3 77 100 0
-3 -77 -100 0
1 71 78 0
-1 -71 -78 0
2 78 86 0
-2 -78 -86 0
3 78 101 0
-3 -78 -101 0
1 72 79 0
-1 -72 -79 0
2 79 87 0
-2 -79 -87 0
3 79 102 0
-3 -79 -102 0
1 73 80 0
-1 -73 -80 0
2 80 88 0
-2 -80 -88 0
3 80 103 0
-3 -80 -103 0
1 74 81 0
-1 -74 -81 0
2 81 89 0
-2 -81 -89 0
3 81 104 0
-3 -81 -104 0
1 75 82 0
-1 -75 -82 0
2 82 90 0
-2 -82 -90 0
3 82 105 0
-3 -82 -105 0
1 76 83 0
-1 -76 -83 0
2 83 91 0
-2 -83 -91 0
3 83 106 0
-3 -83 -106 0
1 77 84 0
-1 -77 -84 0
2 84 92 0
-2 -84 -92 0
3 84 107 0
-3 -84 -107 0
1 78 85 0
-1 -78 -85 0
2 85 93 0
-2 -85 -93 0
3 85 108 0
-3 -85 -108 0
1 79 86 0
-1 -79 -86 0
2 86 94 0
-2 -86 -94 0
3 86 109 0
-3 -86 -109 0
1 80 87 0
-1 -80 -87 0
2 87 95 0
-2 -87 -95 0
3 87 110 0
-3 -87 -110 0
1 81 88 0
-1 -81 -88 0
2 88 96 0
-2 -88 -96 0
3 88 111 0
-3 -88 -111 0
1 82 89 0
-1 -82 -89 0
2 89 97 0
-2 -89 -97 0
3 89 112 0
-3 -89 -112 0
1 83 90 0
-1 -83 -90 0
2 90 98 0
-2 -90 -98 0
3 90 113 0
-3 -90 -113 0
1 84 91 0
-1 -84 -91 0
2 91 99 0
-2 -91 -99 0
1 85 92 0
-1 -85 -92 0
2 92 100 0
-2 -92 -100 0
1 86 93 0
-1 -86 -93 0
2 93 101 0
-2 -93 -101 0
1 87 94 0
-1 -87 -94 0
2 94 102 0
-2 -94 -102 0
1 88 95 0
-1 -88 -95 0
2 95 103 0
-2 -95 -103 0
1 89 96 0
-1 -89 -96 0
2 96 104 0
-2 -96 -104 0
1 90 97 0
-1 -90 -97 0
2 97 105 0
-2 -97 -105 0
1 91 98 0
-1 -91 -98 0
2 98 106 0
-2 -98 -106 0
1 92 99 0
-1 -92 -99 0
2 99 107 0
-2 -99 -107 0
1 93 100 0
-1 -93 -100 0
2 100 108 0
-2 -100 -108 0
1 94 101 0
-1 -94 -101 0
2 101 109 0
-2 -101 -109 0
1 95 102 0
-1 -95 -102 0
2 102 110 0
-2 -102 -110 0
1 96 103 0
-1 -96 -103 0
2 103 111 0
-2 -103 -111 0
1 97 104 0
-1 -97 -104 0
2 104 112 0
-2 -104 -112 0
1 98 105 0
-1 -98 -105 0
2 105 113 0
-2 -105 -113 0
1 99 106 0
-1 -99 -106 0
1 100 107 0
-1 -100 -107 0
1 101 108 0
-1 -101 -108 0
1 102 109 0
-1 -102 -109 0
1 103 110 0
-1 -103 -110 0
1 104 111 0
-1 -104 -111 0
1 105 112 0
-1 -105 -112 0
1 106 113 0
-1 -106 -113 0
