certificates/rado_a15_c22_N113.drat
-106 -113 0
10 -7 106 0
-110 -71 -6 -7 -8 0
13 -10 -7 -8 0
14 106 0
-113 0
106 0
-8 0
1 0
15 0
-99 0
-22 0
21 7 0
d 21 104 7 0
-14 0
2 0
112 0
-10 0
-98 0
-9 0
-7 0
-23 0
-105 0
-104 0
108 0
93 0
107 0
92 0
90 0
0
